\* column_knapsack_problem *\
Minimize
knapsack: 9 col_10 + 9 col_11 + 9 col_12 + 9 col_14 + 8 col_15 + 9 col_18
 + 9 col_19 + 9 col_20 + 9 col_21 + 3 col_23 + 8 col_24 + 9 col_25 + 2 col_29
 + 9 col_3 + 9 col_30 + 9 col_33 + 9 col_35 + 9 col_36 + 9 col_41 + 9 col_7
 + 9 col_8 + col_9
Subject To
sensitivity: col_15 + 6 col_23 + col_24 + 7 col_29 + 8 col_9 >= 2.3
Bounds
 col_10 <= 1
 col_11 <= 1
 col_12 <= 1
 col_14 <= 1
 col_15 <= 1
 col_18 <= 1
 col_19 <= 1
 col_20 <= 1
 col_21 <= 1
 col_23 <= 1
 col_24 <= 1
 col_25 <= 1
 col_29 <= 1
 col_3 <= 1
 col_30 <= 1
 col_33 <= 1
 col_35 <= 1
 col_36 <= 1
 col_41 <= 1
 col_7 <= 1
 col_8 <= 1
 col_9 <= 1
End
